c File: flat175_3_0.col
c
c SOURCE: Joseph Culberson (joe@cs.ualberta.ca)
c DESCRIPTION: Quasi-random coloring problem
c              generated with flatness = 0
c                             probability = 0.041
c                             known coloring = 3
c                             random seed = 1004
c              Creation Date:  Wed Feb 24 10:54:46 1999
c Maximum degree = 8 Minimum degree = 1
c COLOR VERIFICATION: Using the permuted order
c under simple greedy yields the specified
c coloring number
c Color = 3 specified partitions = 3
c p edge 175 417
c cnf created by edge2cnf
p cnf 525 1951
-1 -2 0
-1 -3 0
-2 -3 0
1 2 3 0
-4 -5 0
-4 -6 0
-5 -6 0
4 5 6 0
-7 -8 0
-7 -9 0
-8 -9 0
7 8 9 0
-10 -11 0
-10 -12 0
-11 -12 0
10 11 12 0
-13 -14 0
-13 -15 0
-14 -15 0
13 14 15 0
-16 -17 0
-16 -18 0
-17 -18 0
16 17 18 0
-19 -20 0
-19 -21 0
-20 -21 0
19 20 21 0
-22 -23 0
-22 -24 0
-23 -24 0
22 23 24 0
-25 -26 0
-25 -27 0
-26 -27 0
25 26 27 0
-28 -29 0
-28 -30 0
-29 -30 0
28 29 30 0
-31 -32 0
-31 -33 0
-32 -33 0
31 32 33 0
-34 -35 0
-34 -36 0
-35 -36 0
34 35 36 0
-37 -38 0
-37 -39 0
-38 -39 0
37 38 39 0
-40 -41 0
-40 -42 0
-41 -42 0
40 41 42 0
-43 -44 0
-43 -45 0
-44 -45 0
43 44 45 0
-46 -47 0
-46 -48 0
-47 -48 0
46 47 48 0
-49 -50 0
-49 -51 0
-50 -51 0
49 50 51 0
-52 -53 0
-52 -54 0
-53 -54 0
52 53 54 0
-55 -56 0
-55 -57 0
-56 -57 0
55 56 57 0
-58 -59 0
-58 -60 0
-59 -60 0
58 59 60 0
-61 -62 0
-61 -63 0
-62 -63 0
61 62 63 0
-64 -65 0
-64 -66 0
-65 -66 0
64 65 66 0
-67 -68 0
-67 -69 0
-68 -69 0
67 68 69 0
-70 -71 0
-70 -72 0
-71 -72 0
70 71 72 0
-73 -74 0
-73 -75 0
-74 -75 0
73 74 75 0
-76 -77 0
-76 -78 0
-77 -78 0
76 77 78 0
-79 -80 0
-79 -81 0
-80 -81 0
79 80 81 0
-82 -83 0
-82 -84 0
-83 -84 0
82 83 84 0
-85 -86 0
-85 -87 0
-86 -87 0
85 86 87 0
-88 -89 0
-88 -90 0
-89 -90 0
88 89 90 0
-91 -92 0
-91 -93 0
-92 -93 0
91 92 93 0
-94 -95 0
-94 -96 0
-95 -96 0
94 95 96 0
-97 -98 0
-97 -99 0
-98 -99 0
97 98 99 0
-100 -101 0
-100 -102 0
-101 -102 0
100 101 102 0
-103 -104 0
-103 -105 0
-104 -105 0
103 104 105 0
-106 -107 0
-106 -108 0
-107 -108 0
106 107 108 0
-109 -110 0
-109 -111 0
-110 -111 0
109 110 111 0
-112 -113 0
-112 -114 0
-113 -114 0
112 113 114 0
-115 -116 0
-115 -117 0
-116 -117 0
115 116 117 0
-118 -119 0
-118 -120 0
-119 -120 0
118 119 120 0
-121 -122 0
-121 -123 0
-122 -123 0
121 122 123 0
-124 -125 0
-124 -126 0
-125 -126 0
124 125 126 0
-127 -128 0
-127 -129 0
-128 -129 0
127 128 129 0
-130 -131 0
-130 -132 0
-131 -132 0
130 131 132 0
-133 -134 0
-133 -135 0
-134 -135 0
133 134 135 0
-136 -137 0
-136 -138 0
-137 -138 0
136 137 138 0
-139 -140 0
-139 -141 0
-140 -141 0
139 140 141 0
-142 -143 0
-142 -144 0
-143 -144 0
142 143 144 0
-145 -146 0
-145 -147 0
-146 -147 0
145 146 147 0
-148 -149 0
-148 -150 0
-149 -150 0
148 149 150 0
-151 -152 0
-151 -153 0
-152 -153 0
151 152 153 0
-154 -155 0
-154 -156 0
-155 -156 0
154 155 156 0
-157 -158 0
-157 -159 0
-158 -159 0
157 158 159 0
-160 -161 0
-160 -162 0
-161 -162 0
160 161 162 0
-163 -164 0
-163 -165 0
-164 -165 0
163 164 165 0
-166 -167 0
-166 -168 0
-167 -168 0
166 167 168 0
-169 -170 0
-169 -171 0
-170 -171 0
169 170 171 0
-172 -173 0
-172 -174 0
-173 -174 0
172 173 174 0
-175 -176 0
-175 -177 0
-176 -177 0
175 176 177 0
-178 -179 0
-178 -180 0
-179 -180 0
178 179 180 0
-181 -182 0
-181 -183 0
-182 -183 0
181 182 183 0
-184 -185 0
-184 -186 0
-185 -186 0
184 185 186 0
-187 -188 0
-187 -189 0
-188 -189 0
187 188 189 0
-190 -191 0
-190 -192 0
-191 -192 0
190 191 192 0
-193 -194 0
-193 -195 0
-194 -195 0
193 194 195 0
-196 -197 0
-196 -198 0
-197 -198 0
196 197 198 0
-199 -200 0
-199 -201 0
-200 -201 0
199 200 201 0
-202 -203 0
-202 -204 0
-203 -204 0
202 203 204 0
-205 -206 0
-205 -207 0
-206 -207 0
205 206 207 0
-208 -209 0
-208 -210 0
-209 -210 0
208 209 210 0
-211 -212 0
-211 -213 0
-212 -213 0
211 212 213 0
-214 -215 0
-214 -216 0
-215 -216 0
214 215 216 0
-217 -218 0
-217 -219 0
-218 -219 0
217 218 219 0
-220 -221 0
-220 -222 0
-221 -222 0
220 221 222 0
-223 -224 0
-223 -225 0
-224 -225 0
223 224 225 0
-226 -227 0
-226 -228 0
-227 -228 0
226 227 228 0
-229 -230 0
-229 -231 0
-230 -231 0
229 230 231 0
-232 -233 0
-232 -234 0
-233 -234 0
232 233 234 0
-235 -236 0
-235 -237 0
-236 -237 0
235 236 237 0
-238 -239 0
-238 -240 0
-239 -240 0
238 239 240 0
-241 -242 0
-241 -243 0
-242 -243 0
241 242 243 0
-244 -245 0
-244 -246 0
-245 -246 0
244 245 246 0
-247 -248 0
-247 -249 0
-248 -249 0
247 248 249 0
-250 -251 0
-250 -252 0
-251 -252 0
250 251 252 0
-253 -254 0
-253 -255 0
-254 -255 0
253 254 255 0
-256 -257 0
-256 -258 0
-257 -258 0
256 257 258 0
-259 -260 0
-259 -261 0
-260 -261 0
259 260 261 0
-262 -263 0
-262 -264 0
-263 -264 0
262 263 264 0
-265 -266 0
-265 -267 0
-266 -267 0
265 266 267 0
-268 -269 0
-268 -270 0
-269 -270 0
268 269 270 0
-271 -272 0
-271 -273 0
-272 -273 0
271 272 273 0
-274 -275 0
-274 -276 0
-275 -276 0
274 275 276 0
-277 -278 0
-277 -279 0
-278 -279 0
277 278 279 0
-280 -281 0
-280 -282 0
-281 -282 0
280 281 282 0
-283 -284 0
-283 -285 0
-284 -285 0
283 284 285 0
-286 -287 0
-286 -288 0
-287 -288 0
286 287 288 0
-289 -290 0
-289 -291 0
-290 -291 0
289 290 291 0
-292 -293 0
-292 -294 0
-293 -294 0
292 293 294 0
-295 -296 0
-295 -297 0
-296 -297 0
295 296 297 0
-298 -299 0
-298 -300 0
-299 -300 0
298 299 300 0
-301 -302 0
-301 -303 0
-302 -303 0
301 302 303 0
-304 -305 0
-304 -306 0
-305 -306 0
304 305 306 0
-307 -308 0
-307 -309 0
-308 -309 0
307 308 309 0
-310 -311 0
-310 -312 0
-311 -312 0
310 311 312 0
-313 -314 0
-313 -315 0
-314 -315 0
313 314 315 0
-316 -317 0
-316 -318 0
-317 -318 0
316 317 318 0
-319 -320 0
-319 -321 0
-320 -321 0
319 320 321 0
-322 -323 0
-322 -324 0
-323 -324 0
322 323 324 0
-325 -326 0
-325 -327 0
-326 -327 0
325 326 327 0
-328 -329 0
-328 -330 0
-329 -330 0
328 329 330 0
-331 -332 0
-331 -333 0
-332 -333 0
331 332 333 0
-334 -335 0
-334 -336 0
-335 -336 0
334 335 336 0
-337 -338 0
-337 -339 0
-338 -339 0
337 338 339 0
-340 -341 0
-340 -342 0
-341 -342 0
340 341 342 0
-343 -344 0
-343 -345 0
-344 -345 0
343 344 345 0
-346 -347 0
-346 -348 0
-347 -348 0
346 347 348 0
-349 -350 0
-349 -351 0
-350 -351 0
349 350 351 0
-352 -353 0
-352 -354 0
-353 -354 0
352 353 354 0
-355 -356 0
-355 -357 0
-356 -357 0
355 356 357 0
-358 -359 0
-358 -360 0
-359 -360 0
358 359 360 0
-361 -362 0
-361 -363 0
-362 -363 0
361 362 363 0
-364 -365 0
-364 -366 0
-365 -366 0
364 365 366 0
-367 -368 0
-367 -369 0
-368 -369 0
367 368 369 0
-370 -371 0
-370 -372 0
-371 -372 0
370 371 372 0
-373 -374 0
-373 -375 0
-374 -375 0
373 374 375 0
-376 -377 0
-376 -378 0
-377 -378 0
376 377 378 0
-379 -380 0
-379 -381 0
-380 -381 0
379 380 381 0
-382 -383 0
-382 -384 0
-383 -384 0
382 383 384 0
-385 -386 0
-385 -387 0
-386 -387 0
385 386 387 0
-388 -389 0
-388 -390 0
-389 -390 0
388 389 390 0
-391 -392 0
-391 -393 0
-392 -393 0
391 392 393 0
-394 -395 0
-394 -396 0
-395 -396 0
394 395 396 0
-397 -398 0
-397 -399 0
-398 -399 0
397 398 399 0
-400 -401 0
-400 -402 0
-401 -402 0
400 401 402 0
-403 -404 0
-403 -405 0
-404 -405 0
403 404 405 0
-406 -407 0
-406 -408 0
-407 -408 0
406 407 408 0
-409 -410 0
-409 -411 0
-410 -411 0
409 410 411 0
-412 -413 0
-412 -414 0
-413 -414 0
412 413 414 0
-415 -416 0
-415 -417 0
-416 -417 0
415 416 417 0
-418 -419 0
-418 -420 0
-419 -420 0
418 419 420 0
-421 -422 0
-421 -423 0
-422 -423 0
421 422 423 0
-424 -425 0
-424 -426 0
-425 -426 0
424 425 426 0
-427 -428 0
-427 -429 0
-428 -429 0
427 428 429 0
-430 -431 0
-430 -432 0
-431 -432 0
430 431 432 0
-433 -434 0
-433 -435 0
-434 -435 0
433 434 435 0
-436 -437 0
-436 -438 0
-437 -438 0
436 437 438 0
-439 -440 0
-439 -441 0
-440 -441 0
439 440 441 0
-442 -443 0
-442 -444 0
-443 -444 0
442 443 444 0
-445 -446 0
-445 -447 0
-446 -447 0
445 446 447 0
-448 -449 0
-448 -450 0
-449 -450 0
448 449 450 0
-451 -452 0
-451 -453 0
-452 -453 0
451 452 453 0
-454 -455 0
-454 -456 0
-455 -456 0
454 455 456 0
-457 -458 0
-457 -459 0
-458 -459 0
457 458 459 0
-460 -461 0
-460 -462 0
-461 -462 0
460 461 462 0
-463 -464 0
-463 -465 0
-464 -465 0
463 464 465 0
-466 -467 0
-466 -468 0
-467 -468 0
466 467 468 0
-469 -470 0
-469 -471 0
-470 -471 0
469 470 471 0
-472 -473 0
-472 -474 0
-473 -474 0
472 473 474 0
-475 -476 0
-475 -477 0
-476 -477 0
475 476 477 0
-478 -479 0
-478 -480 0
-479 -480 0
478 479 480 0
-481 -482 0
-481 -483 0
-482 -483 0
481 482 483 0
-484 -485 0
-484 -486 0
-485 -486 0
484 485 486 0
-487 -488 0
-487 -489 0
-488 -489 0
487 488 489 0
-490 -491 0
-490 -492 0
-491 -492 0
490 491 492 0
-493 -494 0
-493 -495 0
-494 -495 0
493 494 495 0
-496 -497 0
-496 -498 0
-497 -498 0
496 497 498 0
-499 -500 0
-499 -501 0
-500 -501 0
499 500 501 0
-502 -503 0
-502 -504 0
-503 -504 0
502 503 504 0
-505 -506 0
-505 -507 0
-506 -507 0
505 506 507 0
-508 -509 0
-508 -510 0
-509 -510 0
508 509 510 0
-511 -512 0
-511 -513 0
-512 -513 0
511 512 513 0
-514 -515 0
-514 -516 0
-515 -516 0
514 515 516 0
-517 -518 0
-517 -519 0
-518 -519 0
517 518 519 0
-520 -521 0
-520 -522 0
-521 -522 0
520 521 522 0
-523 -524 0
-523 -525 0
-524 -525 0
523 524 525 0
-58 -1 0
-59 -2 0
-60 -3 0
-73 -1 0
-74 -2 0
-75 -3 0
-178 -1 0
-179 -2 0
-180 -3 0
-328 -1 0
-329 -2 0
-330 -3 0
-361 -1 0
-362 -2 0
-363 -3 0
-10 -4 0
-11 -5 0
-12 -6 0
-145 -4 0
-146 -5 0
-147 -6 0
-172 -4 0
-173 -5 0
-174 -6 0
-250 -4 0
-251 -5 0
-252 -6 0
-316 -4 0
-317 -5 0
-318 -6 0
-439 -7 0
-440 -8 0
-441 -9 0
-469 -7 0
-470 -8 0
-471 -9 0
-88 -10 0
-89 -11 0
-90 -12 0
-472 -10 0
-473 -11 0
-474 -12 0
-43 -13 0
-44 -14 0
-45 -15 0
-94 -13 0
-95 -14 0
-96 -15 0
-148 -13 0
-149 -14 0
-150 -15 0
-187 -13 0
-188 -14 0
-189 -15 0
-418 -13 0
-419 -14 0
-420 -15 0
-451 -13 0
-452 -14 0
-453 -15 0
-499 -13 0
-500 -14 0
-501 -15 0
-331 -16 0
-332 -17 0
-333 -18 0
-355 -16 0
-356 -17 0
-357 -18 0
-505 -16 0
-506 -17 0
-507 -18 0
-166 -19 0
-167 -20 0
-168 -21 0
-487 -19 0
-488 -20 0
-489 -21 0
-88 -22 0
-89 -23 0
-90 -24 0
-157 -22 0
-158 -23 0
-159 -24 0
-298 -22 0
-299 -23 0
-300 -24 0
-151 -25 0
-152 -26 0
-153 -27 0
-448 -25 0
-449 -26 0
-450 -27 0
-49 -28 0
-50 -29 0
-51 -30 0
-268 -28 0
-269 -29 0
-270 -30 0
-301 -28 0
-302 -29 0
-303 -30 0
-430 -28 0
-431 -29 0
-432 -30 0
-499 -28 0
-500 -29 0
-501 -30 0
-520 -28 0
-521 -29 0
-522 -30 0
-94 -31 0
-95 -32 0
-96 -33 0
-247 -31 0
-248 -32 0
-249 -33 0
-295 -31 0
-296 -32 0
-297 -33 0
-301 -31 0
-302 -32 0
-303 -33 0
-313 -31 0
-314 -32 0
-315 -33 0
-337 -31 0
-338 -32 0
-339 -33 0
-448 -31 0
-449 -32 0
-450 -33 0
-82 -34 0
-83 -35 0
-84 -36 0
-100 -34 0
-101 -35 0
-102 -36 0
-163 -34 0
-164 -35 0
-165 -36 0
-412 -34 0
-413 -35 0
-414 -36 0
-418 -34 0
-419 -35 0
-420 -36 0
-103 -37 0
-104 -38 0
-105 -39 0
-106 -37 0
-107 -38 0
-108 -39 0
-109 -37 0
-110 -38 0
-111 -39 0
-250 -37 0
-251 -38 0
-252 -39 0
-520 -37 0
-521 -38 0
-522 -39 0
-46 -40 0
-47 -41 0
-48 -42 0
-136 -40 0
-137 -41 0
-138 -42 0
-262 -40 0
-263 -41 0
-264 -42 0
-67 -43 0
-68 -44 0
-69 -45 0
-118 -43 0
-119 -44 0
-120 -45 0
-196 -43 0
-197 -44 0
-198 -45 0
-418 -43 0
-419 -44 0
-420 -45 0
-496 -43 0
-497 -44 0
-498 -45 0
-517 -43 0
-518 -44 0
-519 -45 0
-151 -46 0
-152 -47 0
-153 -48 0
-358 -46 0
-359 -47 0
-360 -48 0
-262 -49 0
-263 -50 0
-264 -51 0
-280 -49 0
-281 -50 0
-282 -51 0
-283 -49 0
-284 -50 0
-285 -51 0
-340 -49 0
-341 -50 0
-342 -51 0
-358 -49 0
-359 -50 0
-360 -51 0
-388 -49 0
-389 -50 0
-390 -51 0
-124 -52 0
-125 -53 0
-126 -54 0
-286 -52 0
-287 -53 0
-288 -54 0
-427 -52 0
-428 -53 0
-429 -54 0
-433 -52 0
-434 -53 0
-435 -54 0
-505 -52 0
-506 -53 0
-507 -54 0
-211 -55 0
-212 -56 0
-213 -57 0
-247 -55 0
-248 -56 0
-249 -57 0
-259 -55 0
-260 -56 0
-261 -57 0
-367 -55 0
-368 -56 0
-369 -57 0
-451 -55 0
-452 -56 0
-453 -57 0
-502 -55 0
-503 -56 0
-504 -57 0
-118 -58 0
-119 -59 0
-120 -60 0
-271 -58 0
-272 -59 0
-273 -60 0
-136 -61 0
-137 -62 0
-138 -63 0
-181 -61 0
-182 -62 0
-183 -63 0
-424 -61 0
-425 -62 0
-426 -63 0
-481 -61 0
-482 -62 0
-483 -63 0
-184 -64 0
-185 -65 0
-186 -66 0
-226 -64 0
-227 -65 0
-228 -66 0
-244 -64 0
-245 -65 0
-246 -66 0
-343 -64 0
-344 -65 0
-345 -66 0
-433 -64 0
-434 -65 0
-435 -66 0
-133 -67 0
-134 -68 0
-135 -69 0
-256 -67 0
-257 -68 0
-258 -69 0
-292 -67 0
-293 -68 0
-294 -69 0
-478 -67 0
-479 -68 0
-480 -69 0
-112 -70 0
-113 -71 0
-114 -72 0
-121 -70 0
-122 -71 0
-123 -72 0
-184 -70 0
-185 -71 0
-186 -72 0
-352 -70 0
-353 -71 0
-354 -72 0
-88 -73 0
-89 -74 0
-90 -75 0
-226 -73 0
-227 -74 0
-228 -75 0
-442 -73 0
-443 -74 0
-444 -75 0
-244 -76 0
-245 -77 0
-246 -78 0
-295 -76 0
-296 -77 0
-297 -78 0
-469 -76 0
-470 -77 0
-471 -78 0
-475 -76 0
-476 -77 0
-477 -78 0
-520 -76 0
-521 -77 0
-522 -78 0
-196 -79 0
-197 -80 0
-198 -81 0
-199 -79 0
-200 -80 0
-201 -81 0
-232 -79 0
-233 -80 0
-234 -81 0
-256 -79 0
-257 -80 0
-258 -81 0
-340 -79 0
-341 -80 0
-342 -81 0
-382 -79 0
-383 -80 0
-384 -81 0
-133 -82 0
-134 -83 0
-135 -84 0
-184 -82 0
-185 -83 0
-186 -84 0
-307 -82 0
-308 -83 0
-309 -84 0
-409 -82 0
-410 -83 0
-411 -84 0
-430 -82 0
-431 -83 0
-432 -84 0
-454 -82 0
-455 -83 0
-456 -84 0
-226 -85 0
-227 -86 0
-228 -87 0
-370 -85 0
-371 -86 0
-372 -87 0
-136 -88 0
-137 -89 0
-138 -90 0
-157 -88 0
-158 -89 0
-159 -90 0
-163 -88 0
-164 -89 0
-165 -90 0
-184 -88 0
-185 -89 0
-186 -90 0
-358 -88 0
-359 -89 0
-360 -90 0
-136 -91 0
-137 -92 0
-138 -93 0
-178 -91 0
-179 -92 0
-180 -93 0
-376 -91 0
-377 -92 0
-378 -93 0
-100 -94 0
-101 -95 0
-102 -96 0
-118 -94 0
-119 -95 0
-120 -96 0
-127 -94 0
-128 -95 0
-129 -96 0
-322 -94 0
-323 -95 0
-324 -96 0
-433 -94 0
-434 -95 0
-435 -96 0
-454 -94 0
-455 -95 0
-456 -96 0
-244 -97 0
-245 -98 0
-246 -99 0
-316 -97 0
-317 -98 0
-318 -99 0
-358 -97 0
-359 -98 0
-360 -99 0
-397 -97 0
-398 -98 0
-399 -99 0
-463 -97 0
-464 -98 0
-465 -99 0
-466 -97 0
-467 -98 0
-468 -99 0
-142 -100 0
-143 -101 0
-144 -102 0
-331 -100 0
-332 -101 0
-333 -102 0
-427 -100 0
-428 -101 0
-429 -102 0
-481 -100 0
-482 -101 0
-483 -102 0
-124 -103 0
-125 -104 0
-126 -105 0
-352 -103 0
-353 -104 0
-354 -105 0
-433 -103 0
-434 -104 0
-435 -105 0
-154 -106 0
-155 -107 0
-156 -108 0
-256 -106 0
-257 -107 0
-258 -108 0
-331 -106 0
-332 -107 0
-333 -108 0
-343 -109 0
-344 -110 0
-345 -111 0
-457 -109 0
-458 -110 0
-459 -111 0
-520 -109 0
-521 -110 0
-522 -111 0
-145 -112 0
-146 -113 0
-147 -114 0
-241 -112 0
-242 -113 0
-243 -114 0
-436 -112 0
-437 -113 0
-438 -114 0
-148 -115 0
-149 -116 0
-150 -117 0
-166 -115 0
-167 -116 0
-168 -117 0
-226 -115 0
-227 -116 0
-228 -117 0
-448 -115 0
-449 -116 0
-450 -117 0
-493 -115 0
-494 -116 0
-495 -117 0
-511 -115 0
-512 -116 0
-513 -117 0
-142 -118 0
-143 -119 0
-144 -120 0
-238 -118 0
-239 -119 0
-240 -120 0
-247 -118 0
-248 -119 0
-249 -120 0
-451 -118 0
-452 -119 0
-453 -120 0
-133 -121 0
-134 -122 0
-135 -123 0
-163 -121 0
-164 -122 0
-165 -123 0
-364 -121 0
-365 -122 0
-366 -123 0
-457 -121 0
-458 -122 0
-459 -123 0
-280 -124 0
-281 -125 0
-282 -126 0
-472 -124 0
-473 -125 0
-474 -126 0
-508 -124 0
-509 -125 0
-510 -126 0
-256 -127 0
-257 -128 0
-258 -129 0
-262 -127 0
-263 -128 0
-264 -129 0
-274 -127 0
-275 -128 0
-276 -129 0
-379 -127 0
-380 -128 0
-381 -129 0
-514 -127 0
-515 -128 0
-516 -129 0
-265 -130 0
-266 -131 0
-267 -132 0
-316 -130 0
-317 -131 0
-318 -132 0
-442 -130 0
-443 -131 0
-444 -132 0
-145 -133 0
-146 -134 0
-147 -135 0
-241 -133 0
-242 -134 0
-243 -135 0
-442 -133 0
-443 -134 0
-444 -135 0
-520 -136 0
-521 -137 0
-522 -138 0
-193 -139 0
-194 -140 0
-195 -141 0
-217 -139 0
-218 -140 0
-219 -141 0
-262 -139 0
-263 -140 0
-264 -141 0
-298 -139 0
-299 -140 0
-300 -141 0
-292 -142 0
-293 -143 0
-294 -144 0
-340 -142 0
-341 -143 0
-342 -144 0
-406 -142 0
-407 -143 0
-408 -144 0
-424 -142 0
-425 -143 0
-426 -144 0
-157 -145 0
-158 -146 0
-159 -147 0
-238 -145 0
-239 -146 0
-240 -147 0
-337 -145 0
-338 -146 0
-339 -147 0
-358 -145 0
-359 -146 0
-360 -147 0
-196 -148 0
-197 -149 0
-198 -150 0
-262 -148 0
-263 -149 0
-264 -150 0
-274 -148 0
-275 -149 0
-276 -150 0
-472 -148 0
-473 -149 0
-474 -150 0
-208 -151 0
-209 -152 0
-210 -153 0
-280 -151 0
-281 -152 0
-282 -153 0
-316 -151 0
-317 -152 0
-318 -153 0
-232 -154 0
-233 -155 0
-234 -156 0
-241 -154 0
-242 -155 0
-243 -156 0
-274 -154 0
-275 -155 0
-276 -156 0
-424 -154 0
-425 -155 0
-426 -156 0
-478 -154 0
-479 -155 0
-480 -156 0
-436 -157 0
-437 -158 0
-438 -159 0
-460 -157 0
-461 -158 0
-462 -159 0
-322 -160 0
-323 -161 0
-324 -162 0
-379 -160 0
-380 -161 0
-381 -162 0
-445 -160 0
-446 -161 0
-447 -162 0
-508 -160 0
-509 -161 0
-510 -162 0
-184 -163 0
-185 -164 0
-186 -165 0
-217 -163 0
-218 -164 0
-219 -165 0
-442 -163 0
-443 -164 0
-444 -165 0
-247 -166 0
-248 -167 0
-249 -168 0
-259 -166 0
-260 -167 0
-261 -168 0
-340 -169 0
-341 -170 0
-342 -171 0
-346 -169 0
-347 -170 0
-348 -171 0
-349 -169 0
-350 -170 0
-351 -171 0
-409 -169 0
-410 -170 0
-411 -171 0
-430 -169 0
-431 -170 0
-432 -171 0
-511 -169 0
-512 -170 0
-513 -171 0
-208 -172 0
-209 -173 0
-210 -174 0
-418 -172 0
-419 -173 0
-420 -174 0
-463 -172 0
-464 -173 0
-465 -174 0
-202 -175 0
-203 -176 0
-204 -177 0
-253 -175 0
-254 -176 0
-255 -177 0
-463 -175 0
-464 -176 0
-465 -177 0
-310 -178 0
-311 -179 0
-312 -180 0
-187 -181 0
-188 -182 0
-189 -183 0
-340 -181 0
-341 -182 0
-342 -183 0
-379 -181 0
-380 -182 0
-381 -183 0
-475 -181 0
-476 -182 0
-477 -183 0
-514 -181 0
-515 -182 0
-516 -183 0
-523 -181 0
-524 -182 0
-525 -183 0
-382 -184 0
-383 -185 0
-384 -186 0
-250 -187 0
-251 -188 0
-252 -189 0
-340 -187 0
-341 -188 0
-342 -189 0
-373 -187 0
-374 -188 0
-375 -189 0
-226 -190 0
-227 -191 0
-228 -192 0
-241 -190 0
-242 -191 0
-243 -192 0
-379 -190 0
-380 -191 0
-381 -192 0
-265 -193 0
-266 -194 0
-267 -195 0
-463 -193 0
-464 -194 0
-465 -195 0
-268 -196 0
-269 -197 0
-270 -198 0
-274 -196 0
-275 -197 0
-276 -198 0
-487 -196 0
-488 -197 0
-489 -198 0
-523 -196 0
-524 -197 0
-525 -198 0
-265 -199 0
-266 -200 0
-267 -201 0
-346 -199 0
-347 -200 0
-348 -201 0
-412 -199 0
-413 -200 0
-414 -201 0
-508 -199 0
-509 -200 0
-510 -201 0
-250 -202 0
-251 -203 0
-252 -204 0
-259 -202 0
-260 -203 0
-261 -204 0
-265 -202 0
-266 -203 0
-267 -204 0
-343 -202 0
-344 -203 0
-345 -204 0
-511 -202 0
-512 -203 0
-513 -204 0
-223 -205 0
-224 -206 0
-225 -207 0
-322 -205 0
-323 -206 0
-324 -207 0
-250 -208 0
-251 -209 0
-252 -210 0
-430 -208 0
-431 -209 0
-432 -210 0
-469 -211 0
-470 -212 0
-471 -213 0
-220 -214 0
-221 -215 0
-222 -216 0
-253 -214 0
-254 -215 0
-255 -216 0
-310 -214 0
-311 -215 0
-312 -216 0
-361 -217 0
-362 -218 0
-363 -219 0
-445 -217 0
-446 -218 0
-447 -219 0
-313 -220 0
-314 -221 0
-315 -222 0
-316 -220 0
-317 -221 0
-318 -222 0
-508 -220 0
-509 -221 0
-510 -222 0
-316 -223 0
-317 -224 0
-318 -225 0
-433 -223 0
-434 -224 0
-435 -225 0
-490 -226 0
-491 -227 0
-492 -228 0
-505 -226 0
-506 -227 0
-507 -228 0
-451 -229 0
-452 -230 0
-453 -231 0
-466 -229 0
-467 -230 0
-468 -231 0
-271 -232 0
-272 -233 0
-273 -234 0
-274 -232 0
-275 -233 0
-276 -234 0
-469 -232 0
-470 -233 0
-471 -234 0
-460 -235 0
-461 -236 0
-462 -237 0
-493 -238 0
-494 -239 0
-495 -240 0
-496 -238 0
-497 -239 0
-498 -240 0
-307 -241 0
-308 -242 0
-309 -243 0
-394 -241 0
-395 -242 0
-396 -243 0
-463 -241 0
-464 -242 0
-465 -243 0
-355 -244 0
-356 -245 0
-357 -246 0
-397 -244 0
-398 -245 0
-399 -246 0
-433 -244 0
-434 -245 0
-435 -246 0
-478 -244 0
-479 -245 0
-480 -246 0
-337 -247 0
-338 -248 0
-339 -249 0
-379 -247 0
-380 -248 0
-381 -249 0
-517 -250 0
-518 -251 0
-519 -252 0
-523 -250 0
-524 -251 0
-525 -252 0
-304 -253 0
-305 -254 0
-306 -255 0
-307 -253 0
-308 -254 0
-309 -255 0
-349 -253 0
-350 -254 0
-351 -255 0
-496 -253 0
-497 -254 0
-498 -255 0
-499 -253 0
-500 -254 0
-501 -255 0
-430 -256 0
-431 -257 0
-432 -258 0
-262 -259 0
-263 -260 0
-264 -261 0
-334 -259 0
-335 -260 0
-336 -261 0
-352 -259 0
-353 -260 0
-354 -261 0
-382 -259 0
-383 -260 0
-384 -261 0
-328 -262 0
-329 -263 0
-330 -264 0
-421 -262 0
-422 -263 0
-423 -264 0
-334 -265 0
-335 -266 0
-336 -267 0
-457 -265 0
-458 -266 0
-459 -267 0
-358 -268 0
-359 -269 0
-360 -270 0
-421 -268 0
-422 -269 0
-423 -270 0
-370 -271 0
-371 -272 0
-372 -273 0
-325 -274 0
-326 -275 0
-327 -276 0
-358 -277 0
-359 -278 0
-360 -279 0
-376 -277 0
-377 -278 0
-378 -279 0
-493 -277 0
-494 -278 0
-495 -279 0
-514 -277 0
-515 -278 0
-516 -279 0
-472 -280 0
-473 -281 0
-474 -282 0
-499 -280 0
-500 -281 0
-501 -282 0
-409 -283 0
-410 -284 0
-411 -285 0
-466 -283 0
-467 -284 0
-468 -285 0
-514 -283 0
-515 -284 0
-516 -285 0
-301 -289 0
-302 -290 0
-303 -291 0
-304 -289 0
-305 -290 0
-306 -291 0
-364 -289 0
-365 -290 0
-366 -291 0
-421 -292 0
-422 -293 0
-423 -294 0
-358 -295 0
-359 -296 0
-360 -297 0
-385 -295 0
-386 -296 0
-387 -297 0
-487 -295 0
-488 -296 0
-489 -297 0
-394 -298 0
-395 -299 0
-396 -300 0
-391 -301 0
-392 -302 0
-393 -303 0
-454 -301 0
-455 -302 0
-456 -303 0
-418 -304 0
-419 -305 0
-420 -306 0
-493 -304 0
-494 -305 0
-495 -306 0
-415 -307 0
-416 -308 0
-417 -309 0
-445 -307 0
-446 -308 0
-447 -309 0
-349 -310 0
-350 -311 0
-351 -312 0
-361 -313 0
-362 -314 0
-363 -315 0
-325 -316 0
-326 -317 0
-327 -318 0
-478 -316 0
-479 -317 0
-480 -318 0
-391 -319 0
-392 -320 0
-393 -321 0
-412 -319 0
-413 -320 0
-414 -321 0
-430 -319 0
-431 -320 0
-432 -321 0
-463 -319 0
-464 -320 0
-465 -321 0
-427 -322 0
-428 -323 0
-429 -324 0
-499 -322 0
-500 -323 0
-501 -324 0
-337 -325 0
-338 -326 0
-339 -327 0
-346 -325 0
-347 -326 0
-348 -327 0
-349 -325 0
-350 -326 0
-351 -327 0
-382 -325 0
-383 -326 0
-384 -327 0
-349 -328 0
-350 -329 0
-351 -330 0
-355 -328 0
-356 -329 0
-357 -330 0
-346 -334 0
-347 -335 0
-348 -336 0
-394 -334 0
-395 -335 0
-396 -336 0
-415 -334 0
-416 -335 0
-417 -336 0
-454 -334 0
-455 -335 0
-456 -336 0
-394 -337 0
-395 -338 0
-396 -339 0
-397 -337 0
-398 -338 0
-399 -339 0
-505 -337 0
-506 -338 0
-507 -339 0
-409 -343 0
-410 -344 0
-411 -345 0
-391 -346 0
-392 -347 0
-393 -348 0
-352 -349 0
-353 -350 0
-354 -351 0
-520 -349 0
-521 -350 0
-522 -351 0
-520 -352 0
-521 -353 0
-522 -354 0
-376 -361 0
-377 -362 0
-378 -363 0
-373 -364 0
-374 -365 0
-375 -366 0
-442 -364 0
-443 -365 0
-444 -366 0
-493 -364 0
-494 -365 0
-495 -366 0
-424 -370 0
-425 -371 0
-426 -372 0
-433 -370 0
-434 -371 0
-435 -372 0
-460 -370 0
-461 -371 0
-462 -372 0
-490 -373 0
-491 -374 0
-492 -375 0
-424 -376 0
-425 -377 0
-426 -378 0
-463 -376 0
-464 -377 0
-465 -378 0
-439 -379 0
-440 -380 0
-441 -381 0
-397 -382 0
-398 -383 0
-399 -384 0
-403 -385 0
-404 -386 0
-405 -387 0
-463 -391 0
-464 -392 0
-465 -393 0
-451 -394 0
-452 -395 0
-453 -396 0
-457 -394 0
-458 -395 0
-459 -396 0
-490 -394 0
-491 -395 0
-492 -396 0
-499 -394 0
-500 -395 0
-501 -396 0
-460 -397 0
-461 -398 0
-462 -399 0
-466 -400 0
-467 -401 0
-468 -402 0
-517 -403 0
-518 -404 0
-519 -405 0
-490 -406 0
-491 -407 0
-492 -408 0
-481 -412 0
-482 -413 0
-483 -414 0
-490 -412 0
-491 -413 0
-492 -414 0
-511 -415 0
-512 -416 0
-513 -417 0
-472 -421 0
-473 -422 0
-474 -423 0
-484 -421 0
-485 -422 0
-486 -423 0
-511 -421 0
-512 -422 0
-513 -423 0
-457 -427 0
-458 -428 0
-459 -429 0
-481 -427 0
-482 -428 0
-483 -429 0
-484 -436 0
-485 -437 0
-486 -438 0
-442 -439 0
-443 -440 0
-444 -441 0
-448 -439 0
-449 -440 0
-450 -441 0
-508 -439 0
-509 -440 0
-510 -441 0
-475 -445 0
-476 -446 0
-477 -447 0
-517 -451 0
-518 -452 0
-519 -453 0
-523 -451 0
-524 -452 0
-525 -453 0
-478 -454 0
-479 -455 0
-480 -456 0
-523 -454 0
-524 -455 0
-525 -456 0
-499 -457 0
-500 -458 0
-501 -459 0
-523 -457 0
-524 -458 0
-525 -459 0
-490 -466 0
-491 -467 0
-492 -468 0
-481 -469 0
-482 -470 0
-483 -471 0
-496 -475 0
-497 -476 0
-498 -477 0
-496 -487 0
-497 -488 0
-498 -489 0
-514 -487 0
-515 -488 0
-516 -489 0
-517 -493 0
-518 -494 0
-519 -495 0
-520 -496 0
-521 -497 0
-522 -498 0
